feature_models/dimacs/security/FRSCS/Mendonca2009.dimacs
c 1 FRS_CS
c 2 PhysicalComponents
c 3 Channel
c 4 Network
c 5 WBAN
c 6 WLAN
c 7 LAN
c 8 BAN
c 9 WAN
c 10 Client
c 11 CaptureDevice
c 12 Camera
c 13 Thermal
c 14 NIR
c 15 a3D
c 16 HR
c 17 LR
c 18 Microphone
c 19 Extractor
c 20 CNN
c 21 Facenet
c 22 ArcFace
c 23 Baidu
c 24 FR3DNet
c 25 CocoLoss
c 26 Holistic
c 27 SIFT
c 28 FisherFaces
c 29 EigenFaces
c 30 Gabor
c 31 SLDA
c 32 ICA
c 33 Hybrid
c 34 MRF
c 35 RBFQT
c 36 Server
c 37 Comparator
c 38 Decision
c 39 DistanceMetric
c 40 Binary
c 41 Float
c 42 Integer
c 43 Threshold
c 44 Storage
c 45 BiometricEnrollmentDatabase
c 46 SecurityServices
c 47 Properties
c 48 Confidentiality
c 49 Integrity
c 50 Availability
c 51 Authenticity
c 52 Traceability
c 53 Authentication
c 54 MultifactorAuthentication
c 55 Password
c 56 Token
c 57 TOTP
c 58 SMS
c 59 MultiBiometrics
c 60 IsolationModule
c 61 HardBased
c 62 HSM
c 63 TPM
c 64 SE
c 65 MTM
c 66 SoftBased
c 67 TEE
c 68 SecureBoot
c 69 TrustZone
c 70 UEBA
c 71 EDR
c 72 XDR
c 73 EPP
c 74 MAC
c 75 HMAC
c 76 KMAC
c 77 CMAC
c 78 TemplateProtection
c 79 CancellableBiometrics
c 80 BioConvolving
c 81 Salting
c 82 ARH
c 83 BloomFilter
c 84 BioHashing
c 85 HE
c 86 FHE
c 87 BGV
c 88 CKKS
c 89 BFV
c 90 PHE
c 91 Kyber
c 92 Saber
c 93 ClassicMcEliece
c 94 Paillier
c 95 NTRU
c 96 CryptoSystem
c 97 FuzzyCommitment
c 98 FuzzyExtractor
c 99 eSketch
c 100 FuzzyVault
c 101 PostQuantumResistance_Template
c 102 ASpoofingTechnique
c 103 Static
c 104 LBP
c 105 GLCM
c 106 QC
c 107 NIRImages
c 108 FaceTemperature
c 109 Dynamic
c 110 Eye_movement
c 111 rPPG
c 112 Pupil_changes
c 113 ReadChallenge
c 114 PDP
c 115 SecChannel
c 116 Protocol
c 117 TLS11
c 118 TLS12
c 119 TLS13
c 120 BilateralAuthentication
c 121 SystemUpdates
c 122 PrivacyServices
c 123 Obfuscation
c 124 Shuffling
c 125 RepeteableMasking
c 126 Secret_Padding
c 127 ZKP
c 128 Ligero
c 129 NIZKPoK
c 130 ZK_SNARK
c 131 Aurora
c 132 Hyrax
c 133 ZK_STARK
c 134 PIR
c 135 sDEPIR
c 136 pDEPIR
c 137 ORAM
c 138 VSPIR
c 139 PSIR
c 140 EPID
c 141 BiometricPerformanceService
c 142 Accuracy
c 143 VeryHigh
c 144 High
c 145 Medium
c 146 TemplateSize
c 147 Small
c 148 Medium_1
c 149 Large
c 150 AuthenticationSpeed
c 151 VeryFast
c 152 Fast
c 153 Medium_2
c 154 SystemSecurityLevel
c 155 VeryHigh_1
c 156 High_1
c 157 Medium_3
c 158 Low
p cnf 158 457
1 0
1 -2 0
1 -46 0
1 -122 0
-141 1 0
-1 2 0
-1 46 0
-1 122 0
-3 2 0
-10 2 0
2 -36 0
3 -2 0
10 -2 0
-2 36 0
3 -4 0
-3 4 0
4 -5 0
4 -6 0
-7 4 0
-8 4 0
4 -9 0
8 7 -4 9 5 6 0
-11 10 0
10 -19 0
11 -10 0
-10 19 0
-12 11 0
11 -18 0
12 -11 0
12 -13 0
12 -14 0
12 -15 0
12 -16 0
12 -17 0
-12 16 17 14 13 15 0
-14 -13 0
-13 -15 0
-16 -13 0
-17 -13 0
-14 -15 0
-16 -14 0
-17 -14 0
-16 -15 0
-17 -15 0
-16 -17 0
-20 19 0
19 -26 0
19 -33 0
20 -19 26 33 0
-20 -26 0
-20 -33 0
-26 -33 0
20 -21 0
-22 20 0
-23 20 0
20 -24 0
20 -25 0
22 23 -20 25 24 21 0
-22 -21 0
-23 -21 0
-24 -21 0
-25 -21 0
-22 -23 0
-22 -24 0
-22 -25 0
-23 -24 0
-23 -25 0
-25 -24 0
26 -27 0
-28 26 0
-29 26 0
-30 26 0
26 -31 0
26 -32 0
29 28 30 -26 32 27 31 0
-28 -27 0
-29 -27 0
-30 -27 0
-27 -31 0
-32 -27 0
-29 -28 0
-28 -30 0
-28 -31 0
-28 -32 0
-29 -30 0
-29 -31 0
-29 -32 0
-30 -31 0
-30 -32 0
-32 -31 0
33 -34 0
33 -35 0
-33 34 35 0
-34 -35 0
-37 36 0
-38 36 0
36 -44 0
37 -36 0
38 -36 0
-36 44 0
38 -39 0
38 -43 0
-40 39 0
39 -41 0
39 -42 0
40 -39 41 42 0
-40 -41 0
-40 -42 0
-41 -42 0
-45 44 0
45 -44 0
-47 46 0
-54 46 0
-60 46 0
46 -70 0
-74 46 0
46 -78 0
-101 46 0
-102 46 0
-114 46 0
-115 46 0
46 -121 0
47 -46 0
-46 70 0
-46 78 0
114 -46 0
115 -46 0
-48 47 0
-49 47 0
-50 47 0
-51 47 0
47 -52 0
-53 47 0
53 51 50 48 49 -47 52 0
54 -55 0
54 -56 0
54 -57 0
54 -58 0
-59 54 0
59 -54 55 58 57 56 0
-61 60 0
60 -66 0
61 -60 66 0
-62 61 0
61 -63 0
61 -64 0
61 -65 0
62 -61 65 64 63 0
-62 -63 0
-62 -64 0
-62 -65 0
-64 -63 0
-65 -63 0
-65 -64 0
66 -67 0
-68 66 0
66 -69 0
68 -66 67 69 0
-68 -67 0
-67 -69 0
-68 -69 0
-71 70 0
70 -72 0
-73 70 0
71 73 -70 72 0
-75 74 0
-76 74 0
-77 74 0
77 75 76 -74 0
-75 -76 0
-77 -75 0
-77 -76 0
-79 78 0
-85 78 0
-96 78 0
79 96 85 -78 0
-79 -85 0
-79 -96 0
-96 -85 0
-80 79 0
79 -81 0
-82 79 0
-83 79 0
-84 79 0
82 80 84 83 -79 81 0
-80 -81 0
-82 -80 0
-80 -83 0
-80 -84 0
-82 -81 0
-83 -81 0
-84 -81 0
-82 -83 0
-82 -84 0
-84 -83 0
-86 85 0
85 -90 0
86 -85 90 0
-86 -90 0
-87 86 0
-88 86 0
-89 86 0
89 87 88 -86 0
-87 -88 0
-89 -87 0
-89 -88 0
-91 90 0
90 -92 0
-93 90 0
90 -94 0
-95 90 0
93 91 95 -90 94 92 0
-91 -92 0
-93 -91 0
-91 -94 0
-91 -95 0
-93 -92 0
-94 -92 0
-95 -92 0
-93 -94 0
-93 -95 0
-95 -94 0
96 -97 0
96 -98 0
96 -99 0
96 -100 0
-96 97 98 100 99 0
-97 -98 0
-97 -99 0
-97 -100 0
-98 -99 0
-98 -100 0
-100 -99 0
102 -103 0
102 -109 0
-102 109 103 0
-104 103 0
-105 103 0
-106 103 0
-107 103 0
-108 103 0
108 105 104 107 106 -103 0
109 -110 0
109 -111 0
109 -112 0
109 -113 0
-109 110 112 113 111 0
-116 115 0
-120 115 0
116 -115 0
116 -117 0
116 -118 0
116 -119 0
-116 117 118 119 0
-117 -118 0
-117 -119 0
-118 -119 0
-123 122 0
122 -127 0
-134 122 0
-140 122 0
-122 127 0
134 -122 0
140 -122 0
123 -124 0
123 -125 0
123 -126 0
-123 125 126 124 0
-128 127 0
-129 127 0
127 -130 0
-131 127 0
-132 127 0
127 -133 0
131 132 128 129 -127 130 133 0
-128 -129 0
-128 -130 0
-131 -128 0
-132 -128 0
-128 -133 0
-129 -130 0
-131 -129 0
-132 -129 0
-129 -133 0
-131 -130 0
-132 -130 0
-130 -133 0
-131 -132 0
-131 -133 0
-132 -133 0
134 -135 0
134 -136 0
-137 134 0
134 -138 0
134 -139 0
137 -134 139 138 136 135 0
-136 -135 0
-137 -135 0
-138 -135 0
-139 -135 0
-137 -136 0
-138 -136 0
-139 -136 0
-137 -138 0
-137 -139 0
-139 -138 0
-142 141 0
141 -146 0
-150 141 0
141 -154 0
142 -141 0
-141 146 0
150 -141 0
-141 154 0
142 -143 0
142 -144 0
142 -145 0
-142 144 145 143 0
-144 -143 0
-145 -143 0
-144 -145 0
-147 146 0
-148 146 0
-149 146 0
149 148 147 -146 0
-148 -147 0
-149 -147 0
-149 -148 0
150 -151 0
150 -152 0
150 -153 0
-150 152 153 151 0
-152 -151 0
-153 -151 0
-152 -153 0
154 -155 0
-156 154 0
-157 154 0
-158 154 0
156 158 157 -154 155 0
-156 -155 0
-157 -155 0
-158 -155 0
-156 -157 0
-156 -158 0
-158 -157 0
152 -100 0
-84 152 0
-89 148 0
-87 148 0
-88 149 0
149 -94 0
-95 147 0
-92 147 0
14 -107 0
-91 147 0
-26 -17 0
153 -81 0
-80 153 0
-82 153 0
-24 15 0
18 -113 0
-84 148 0
-104 -17 0
-83 152 0
-105 -17 0
-82 149 0
-17 -106 0
149 -81 0
102 -52 0
36 -52 0
-88 153 0
124 -155 0
126 -155 0
104 -155 0
106 -155 0
-100 147 0
149 -99 0
58 -155 0
59 -155 0
-97 148 0
-98 147 0
-10 70 0
153 -94 0
-45 114 0
-49 60 0
-49 74 0
102 -11 0
153 -99 0
-98 153 0
-49 114 0
152 -97 0
-4 115 0
-95 151 0
-71 -72 0
71 -155 0
73 -155 0
120 -155 0
67 -155 0
62 -155 0
101 -155 0
113 -155 0
20 -155 0
-155 111 0
-80 148 0
-83 149 0
53 -155 0
52 -155 0
121 -155 0
20 -156 0
-156 54 0
16 -155 0
48 -155 0
49 -155 0
51 -155 0
-156 104 0
-156 70 0
120 -156 0
-156 113 0
-156 60 0
-157 -101 0
-156 121 0
-79 -156 0
-85 43 0
-156 -101 0
-79 43 0
-96 -43 0
-61 -157 0
-157 66 0
71 -157 0
-120 -157 0
-157 -54 0
-60 -158 0
-158 -101 0
-120 -158 0
-158 -54 0
119 -151 0
-20 151 0
-93 147 0
-93 151 0
-85 123 0
19 -52 0
54 -155 0
-93 101 0
-91 101 0
101 -92 0
-50 45 0
41 -94 0
-87 41 0
-89 41 0
-96 -39 0
40 -92 0
40 -91 0
40 -93 0
48 -78 0
-88 42 0
-92 151 0
